language ESSENCE' 1.0

letting fixed be 
[
    [9,0,0,0,0,0,1,0,6],
    [0,0,2,5,9,0,0,0,0],
    [3,0,8,0,4,0,0,9,0],
    [0,8,0,0,0,0,0,7,0],
    [5,7,0,2,0,4,0,6,9],
    [0,9,0,0,7,0,0,4,0],
    [8,0,9,0,5,0,6,0,3],
    [0,0,0,0,3,8,9,0,0],
    [1,3,5,0,0,0,0,0,0]
]